10613.6,1883.38,1835.23,1755.97,1755.97,1755.97,1717.78,1717.78,1717.78,1717.78,1717.78,1717.78,1717.78,1717.78,1717.78,1717.78,1717.78,1717.78,1717.78,1717.78,1717.78,1717.78,1717.78,1717.78,1714.45,1714.45,1714.45,1714.45,1714.45,1714.45,1714.45,1714.45,1714.45,1714.45,1714.45,1714.45,1714.45,1714.45,1714.45,1714.45,1714.45,1714.45,1714.45,1714.45,1714.45,1714.45,1714.45,1714.45,1714.45,1714.45,1714.45,1714.45,1714.45,1714.45,1714.45,1714.45,1714.45,1714.45,1714.45,1714.45,1714.45,1707.39,1701.92,1701.92,1701.92,1701.92,1701.92,1701.92,1701.92,1701.92,1701.92,1701.92,1701.92,1701.92,1701.92,1701.92,1701.92,1701.92,1701.92,1701.92,1681.37,1681.37,1678.63,1634.07,1634.07,1634.07,1634.07,1634.07,1634.07,1634.07,1634.07,1634.07,1634.07,1634.07,1634.07,1634.07,1634.07,1634.07,1634.07,1634.07,1634.07,1634.07,1634.07,1634.07,1634.07,1634.07,1634.07,1634.07,1634.07,1634.07,1634.07,1634.07,1634.07,1634.07,1634.07,1634.07,1634.07,1634.07,1634.07,1634.07,1634.07,1634.07,1634.07,1609.28,1609.28,1609.28,1609.28,1609.28,1609.28,1609.28,1609.28,1609.28,1609.28,1609.28,1609.28,1609.28,1609.28,1609.28,1609.28,1609.28,1609.28,1609.28,1609.28,1609.28,1609.28,1609.28,1609.28,1609.28,1609.28,1609.28,1609.28,1609.28,1609.28,1609.28,1609.28,1609.28,1609.28,1609.28,1609.28,1609.28,1609.28,1609.28,1609.28,1609.28,1609.28,1609.28,1609.28,1609.28,1609.28,1609.28,1609.28,1609.28,1609.28,1609.28,1609.28,1609.28,1609.28,1609.28,1609.28,1609.28,1609.28,1609.28,1609.28,1609.28,1609.28,1609.28,1609.28,1609.28,1609.28,1609.28,1609.28,1609.28,1609.28,1609.28,1609.28,1609.28,1609.28,1609.28,1609.28,1609.28,1609.28,1609.28,1609.28,1609.28,1609.28,1609.28,1609.28,1609.28,1609.28,1609.28,1609.28,1609.28,1609.28,1609.28,1609.28,1609.28,1608.73,1607.46,1607.46,1578.61,1578.61,1578.61,1578.61,1578.61,1578.61,1578.61,1576.81,1576.48,1576.48,1576.48,1572.54,1572.54,1572.54,1571.53,1569.22,1569.22,1569.22,1569.22,1568.23,1541.41,1541.41,1541.41,1541.41,1541.41,1541.41,1541.41,1541.41,1541.41,1541.41,1541.41,1541.41,1541.41,1541.41,1541.41,1541.41,1541.41,1541.41,1541.41,1541.41,1541.41,1541.41,1541.41,1541.41,1541.41,1541.41,1541.41,1541.41,1541.41,1541.41,1541.41,1541.41,1541.41,1541.41,1541.41,1541.41,1541.41,1541.41,1541.41,1541.41,1541.41,1541.41,1541.41,1541.41,1541.41,1541.41,1541.41,1541.41,1541.41,1541.41,1541.41,1541.41,1541.41,1541.41,1541.41,1541.41,1541.41,1541.41,1541.41,1541.41,1541.41,1541.41,1541.41,1541.41,1541.41,1541.41,1541.41,1541.41,1541.41,1541.41,1541.41,1541.41,1541.41,1541.41,1541.41,1541.41,1541.41,1541.41,1541.41,1541.41,1541.41,1541.41,1541.41,1541.41,1541.41,1541.41,1541.41,1541.41,1541.41,1541.41,1541.41,1541.41,1541.41,1541.41,1541.41,1541.41,1541.41,1541.41,1541.41,1541.41,1541.41,1541.41,1541.41,1541.41,1541.41,1541.41,1541.41,1541.41,1541.41,1541.41,1541.41,1541.41,1541.41,1541.41,1541.41,1541.41,1541.41,1541.41,1541.41,1541.41,1541.41,1541.41,1541.41,1541.41,1541.41,1541.41,1541.41,1541.41,1541.41,1541.41,1541.41,1541.41,1541.41,1541.41,1541.41,1541.41,1541.41,1541.41,1541.41,1541.41,1541.41,1541.41,1541.41,1541.41,1541.41,1541.41,1541.41,1541.41,1541.41,1541.41,1541.41,1541.41,1541.41,1541.41,1541.41,1541.41,1541.41,1541.41,1541.41,1541.41,1541.41,1541.41,1541.41,1541.41,1541.41,1541.41,1541.41,1541.41,1541.41,1541.41,1541.41,1541.41,1541.41,1541.41,1541.41,1541.41,1541.41,1541.41,1541.41,1541.41,1541.41,1541.41,1541.41,1541.41,1541.41,1541.41,1541.41,1541.41,1541.41,1541.41,1541.41,1541.41,1541.41,1541.41,1541.41,1541.41,1541.41,1541.41,1541.41,1541.41,1541.41,1541.41,1541.41,1541.41,1541.41,1541.41,1541.41,1541.41,1541.41,1541.41,1541.41,1541.41,1541.41,1541.41,1541.41,1541.41,1541.41,1541.41,1541.41,1541.41,1541.41,1541.41,1541.41,1541.41,1541.41,1541.41,1541.41,1541.41,1541.41,1541.41,1541.41,1541.41,1541.41,1541.41,1541.41,1541.41,1541.41,1541.41,1541.41,1541.41,1541.41,1541.41,1541.41,1541.41,1541.41,1541.41,1541.41,1541.41,1541.41,1541.41,1541.41,1541.41,1541.41,1541.41,1541.41,1541.41,1541.41,1541.41,1541.41,1541.41,1541.41,1541.41,1541.41,1541.41,1541.41,1541.41,1541.41,1541.41,1541.41,1541.41,1541.41,1541.41,1541.41,1541.41,1541.41,1541.41,1541.41,1541.41,1541.41,1541.41,1541.41,1541.41,1541.41,1541.41,1541.41,1541.41,1541.41,1541.41,1541.41,1541.41,1541.41,1541.41,1541.41,1541.41,1541.41,1541.41,1541.41,1541.41,1541.41,1541.41,1541.41,1541.41,1541.41,1541.41,1541.41,1541.41,1541.41,1541.41,1541.41,1541.41,1541.41,1541.41,1541.41,1541.41,1541.41,1541.41,1541.41,1541.41,1541.41,1541.41,1541.41,1541.41,1541.41,1541.41,1541.41,1541.41,1541.41,1541.41,1541.41,1541.41,1541.41,1541.41,1541.41,1541.41,1541.41,1541.41,1541.41,1541.41,1541.41,1541.41,1541.41,1541.41,1541.41,1541.41,1541.41,1541.41,1541.41,1541.41,1541.41,1541.41,1541.41,1541.41,1541.41,1541.41,1541.41,1541.41,1541.41,1541.41,1541.41,1541.41,1541.41,1541.41,1541.41,1541.41,1541.41,1541.41,1541.41,1541.41,1541.41,1541.41,1541.41,1541.41,1541.41,1541.41,1541.41,1541.41,1541.41,1541.41,1541.41,1541.41,1541.41,1541.41,1541.41,1541.41,1541.41,1541.41,1541.41,1541.41,1541.41,1541.41,1541.41,1541.41,1541.41,1541.41,1541.41,1541.41,1541.41,1541.41,1541.41,1541.41,1541.41,1541.41,1541.41,1541.41,1541.41,1541.41,1541.41,1541.41,1541.41,1541.41,1541.41,1541.41,1541.41,1541.41,1541.41,1541.41,1541.41,1541.41,1541.41,1541.41,1541.41,1541.41,1541.41,1541.41,1541.41,1541.41,1541.41,1541.41,1541.41,1541.41,1541.41,1541.41,1541.41,1541.41,1541.41,1541.41,1541.41,1541.41,1541.41,1541.41,1541.41,1541.41,1541.41,1541.41,1541.41,1541.41,1541.41,1541.41,1541.41,1541.41,1541.41,1541.41,1541.41,1541.41,1541.41,1541.41,1541.41,1541.41,1541.41,1541.41,1541.41,1541.41,1541.41,1541.41,1541.41,1541.41,1541.41,1541.41,1541.41,1541.41,1541.41,1541.41,1541.41,1541.41,1541.41,1541.41,1541.41,1541.41,1541.41,1541.41,1541.41,1541.41,1541.41,1541.41,1541.41,1541.41,1541.41,1541.41,1541.41,1541.41,1541.41,1541.41,1541.41,1541.41,1541.41,1541.41,1541.41,1541.41,1541.41,1541.41,1541.41,1541.41,1541.41,1541.41,1541.41,1541.41,1541.41,1541.41,1541.41,1541.41,1541.41,1541.41,1541.41,1541.41,1541.41,1541.41,1541.41,1541.41,1541.41,1541.41,1541.41,1541.41,1541.41,1541.41,1541.41,1541.41,1541.41,1541.41,1541.41,1541.41,1541.41,1541.41,1541.41,1541.41,1541.41,1541.41,1541.41,1541.41,1541.41,1541.41,1541.41,1541.41,1541.41,1541.41,1541.41,1541.41,1541.41,1541.41,1541.41,1541.41,1541.41,1541.41,1541.41,1541.41,1541.41,1541.41,1541.41,1541.41,1541.41,1541.41,1541.41,1541.41,1541.41,1541.41,1541.41,1541.41,1541.41,1541.41,1541.41,1541.41,1541.41,1541.41,1541.41,1541.41,1541.41,1541.41,1541.41,1541.41,1541.41,1541.41,1541.41,1541.41,1541.41,1541.41,1541.41,1541.41,1541.41,1541.41,1541.41,1541.41,1541.41,1541.41,1541.41,1541.41,1541.41,1541.41,1541.41,1541.41,1541.41,1541.41,1541.41,1541.41,1541.41,1541.41,1541.41,1541.41,1541.41,1541.41,1541.41,1541.41,1541.41,1541.41,1541.41,1541.41,1541.41,1541.41,1541.41,1541.41,1541.41,1541.41,1541.41,1541.41,1541.41,1541.41,1541.41,1541.41,1541.41,1541.41,1541.41,1541.41,1541.41,1541.41,1541.41,1541.41,1541.41,1541.41,1541.41,1541.41,1541.41,1541.41,1541.41,1541.41,1541.41,1541.41,1541.41,1541.41,1541.41,1541.41,1541.41,1541.41,1541.41,1541.41,1541.41,1541.41,1541.41,1541.41,1541.41,1541.41,1541.41,1541.41,1541.41,1541.41,1541.41,1541.41,1541.41,1541.41,1541.41,1541.41,1541.41,1541.41,1541.41,1541.41,1541.41,1541.41,1541.41,1541.41,1541.41,1541.41,1541.41,1541.41,1541.41,1541.41,1541.41,1541.41,1541.41,1541.41,1541.41,1541.41,1541.41,1541.41,1541.41,1541.41,1541.41,1541.41,1541.41,1541.41,1541.41,1541.41,1541.41,1541.41,1541.41,1541.41,1541.41,1541.41,1541.41,1541.41,1541.41,1541.41,1541.41,1541.41,1541.41,1541.41,1541.41,1541.41,1541.41,1541.41,1541.41,1541.41,1541.41,1541.41,1541.41,1541.41,1541.41,1541.41,1541.41,1541.41,1541.41,1541.41,1541.41,1541.41,1541.41,1541.41,1541.41,1541.41,1541.41,1541.41,1541.41,1541.41,1541.41,1541.41,1541.41,1541.41,1541.41,1541.41,1541.41,1541.41,1541.41,1541.41,1541.41,1541.41,1541.41,1541.41,1541.41,1541.41,1541.41,1541.41,1541.41,1541.41,1541.41,1541.41,1541.41,1541.41,1541.41,1541.41,1541.41,1541.41,1541.41,1541.41,1541.41,1541.41,1541.41,1541.41,1541.41,1541.41,1541.41,1541.41,1541.41,1541.41,1541.41,1541.41,1541.41,1541.41,1541.41,1541.41,1541.41,1541.41,1541.41,1541.41,1541.41,1541.41,1541.41,1541.41,1541.41,1541.41,1541.41,1541.41,1541.41,1541.41,1541.41,1541.41,1541.41,1541.41,1541.41,1541.41,1541.41,1541.41,1541.41,1541.41,1541.41,1541.41,1541.41,1541.41,1541.41,1541.41,1541.41,1541.41,1541.41,1541.41,1541.41,1541.41,1541.41,1541.41,1541.41,1541.41,1541.41,1541.41,1541.41,1541.41,1541.41,1541.41,1541.41,1541.41,1541.41,1541.41,1541.41,1541.41,1541.41,1541.41,1541.41,1541.41,1541.41,1541.41,1541.41,1541.41,1541.41,1541.41,1541.41,1541.41,1541.41,1541.41,1541.41,1541.41,1541.41,1541.41,1541.41,1541.41,1541.41,1541.41,1541.41,1541.41,1541.41,1541.41,1541.41,1541.41,1541.41,1541.41,1541.41,1541.41,1541.41,1541.41,1541.41,1541.41,1541.41,1541.41,1541.41,1541.41,1541.41,1541.41,1541.41,1541.41,1541.41,1541.41,1541.41,1541.41,1541.41,1541.41,1541.41,1541.41,1541.41,1541.41,1541.41,1541.41,1541.41,1541.41,1541.41,1541.41,1541.41,1541.41,1541.41,1541.41,1541.41,1541.41,1541.41,1541.41,1541.41,1541.41,1541.41,1541.41,1541.41,1541.41,1541.41,1541.41,1541.41,1541.41,1541.41,1541.41,1541.41,1541.41,1541.41,1541.41,1541.41,1541.41,1541.41,1541.41,1541.41,1541.41,1541.41,1541.41,1541.41,1541.41,1541.41,1541.41,1541.41,1541.41,1541.41,1541.41,1541.41,1541.41,1541.41,1541.41,1541.41,1541.41,1541.41,1541.41,1541.41,1541.41,1541.41,1541.41,1541.41,1541.41,1541.41,1541.41,1541.41,1541.41,1541.41,1541.41,1541.41,1541.41,1541.41,1541.41,1541.41,1541.41,1541.41,1541.41,1541.41,1541.41,1541.41,1541.41,1541.41,1541.41,1541.41,1541.41,1541.41,1541.41,1541.41,1541.41,1541.41,1541.41,1541.41,1541.41,1541.41,1541.41,1541.41,1541.41,1541.41,1541.41,1541.41,1541.41,1541.41,1541.41,1541.41,1541.41,1541.41,1541.41,1541.41,1541.41,1541.41,1541.41,1541.41,1541.41,1541.41,1541.41,1541.41,1541.41,1541.41,1541.41,1541.41,1541.41,1541.41,1541.41,1541.41,1541.41,1541.41,1541.41,1541.41,1541.41,1541.41,1541.41,1541.41,1541.41,1541.41,1541.41,1541.41,1541.41,1541.41,1541.41,1541.41,1541.41,1541.41,1541.41,1541.41,1541.41,1541.41,1541.41,1541.41,1541.41,1541.41,1541.41,1541.41,1541.41,1541.41,1541.41,1541.41,1541.41,1541.41,1541.41,1541.41,1541.41,1541.41,1541.41,1541.41,1541.41,1541.41,1541.41,1541.41,1541.41,1541.41,1541.41,1541.41,1541.41,1541.41,1541.41,1541.41,1541.41,1541.41,1541.41,1541.41,1541.41,1541.41,1541.41,1541.41,1541.41,1541.41,1541.41,1541.41,1541.41,1541.41,1541.41,1541.41,1541.41,1541.41,1541.41,1541.41,1541.41,1541.41,1541.41,1541.41,1541.41,1541.41,1541.41,1541.41,1541.41,1541.41,1541.41,1541.41,1541.41,1541.41,1541.41,1541.41,1541.41,1541.41,1541.41,1541.41,1541.41,1541.41,1541.41,1541.41,1541.41,1541.41,1541.41,1541.41,1541.41,1541.41,1541.41,1541.41,1541.41,1541.41,1541.41,1541.41,1541.41,1541.41,1541.41,1541.41,1541.41,1541.41,1541.41,1541.41,1541.41,1541.41,1541.41,1541.41,1541.41,1541.41,1541.41,1541.41,1541.41,1541.41,1541.41,1541.41,1541.41,1541.41,1541.41,1541.41,1541.41,1541.41,1541.41,1541.41,1541.41,1541.41,1541.41,1541.41,1541.41,1541.41,1541.41,1541.41,1541.41,1541.41,1541.41,1541.41,1541.41,1541.41,1541.41,1541.41,1541.41,1541.41,1541.41,1541.41,1541.41,1541.41,1541.41,1541.41,1541.41,1541.41,1541.41,1541.41,1541.41,1541.41,1541.41,1541.41,1541.41,1541.41,1541.41,1541.41,1541.41,1541.41,1541.41,1541.41,1541.41,1541.41,1541.41,1541.41,1541.41,1541.41,1541.41,1541.41,1541.41,1541.41,1541.41,1541.41,1541.41,1541.41,1541.41,1541.41,1541.41,1541.41,1541.41,1541.41,1541.41,1541.41,1541.41,1541.41,1541.41,1541.41,1541.41,1541.41,1541.41,1541.41,1541.41,1541.41,1541.41,1541.41,1541.41,1541.41,1541.41,1541.41,1541.41,1541.41,1541.41,1541.41,1541.41,1541.41,1541.41,1541.41,1541.41,1541.41,1541.41,1541.41,1541.41,1541.41,1541.41,1541.41,1541.41,1541.41,1541.41,1541.41,1541.41,1541.41,1541.41,1541.41,1541.41,1541.41,1541.41,1541.41,1541.41,1541.41,1541.41,1541.41,1541.41,1541.41,1541.41,1541.41,1541.41,1541.41,1541.41,1541.41,1541.41,1541.41,1541.41,1541.41,1541.41,1541.41,1541.41,1541.41,1541.41,1541.41,1541.41,1541.41,1541.41,1541.41,1541.41,1541.41,1541.41,1541.41,1541.41,1541.41,1541.41,1541.41,1541.41,1541.41,1541.41,1541.41,1541.41,1541.41,1541.41,1541.41,1541.41,1541.41,1541.41,1541.41,1541.41,1541.41,1541.41,1541.41,1541.41,1541.41,1541.41,1541.41,1541.41,1541.41,1541.41,1541.41,1541.41,1541.41,1541.41,1541.41,1541.41,1541.41,1541.41,1541.41,1541.41,1541.41,1541.41,1541.41,1541.41,1541.41,1541.41,1541.41,1541.41,1541.41,1541.41,1541.41,1541.41,1541.41,1541.41,1541.41,1541.41,1541.41,1541.41,1541.41,1541.41,1541.41,1541.41,1541.41,1541.41,1541.41,1541.41,1541.41,1541.41,1541.41,1541.41,1541.41,1541.41,1541.41,1541.41,1541.41,1541.41,1541.41,1541.41,1541.41,1541.41,1541.41,1541.41,1541.41,1541.41,1541.41,1541.41,1541.41,1541.41,1541.41,1541.41,1541.41,1541.41,1541.41,1541.41,1541.41,1541.41,1541.41,1541.41,1541.41,1541.41,1541.41,1541.41,1541.41,1541.41,1541.41,1541.41,1541.41,1541.41,1541.41,1541.41,1541.41,1541.41,1541.41,1541.41,1541.41,1541.41,1541.41,1541.41,1541.41,1541.41,1541.41,1541.41,1541.41,1541.41,1541.41,1541.41,1541.41,1541.41,1541.41,1541.41,1541.41,1541.41,1541.41,1541.41,1541.41,1541.41,1541.41,1541.41,1541.41,1541.41,1541.41,1541.41,1541.41,1541.41,1541.41,1541.41,1541.41,1541.41,1541.41,1541.41,1541.41,1541.41,1541.41,1541.41,1541.41,1541.41,1541.41,1541.41,1541.41,1541.41,1541.41,1541.41,1541.41,1541.41,1541.41,1541.41,1541.41,1541.41,1541.41,1541.41,1541.41,1541.41,1541.41,1541.41,1541.41,1541.41,1541.41,1541.41,1541.41,1541.41,1541.41,1541.41,1541.41,1541.41,1541.41,1541.41,1541.41,1541.41,1541.41,1541.41,1541.41,1541.41,1541.41,1541.41,1541.41,1541.41,1541.41,1541.41,1541.41,1541.41,1541.41,1541.41,1541.41,1541.41,1541.41,1541.41,1541.41,1541.41,1541.41,1541.41,1541.41,1541.41,1541.41,1541.41,1541.41,1541.41,1541.41,1541.41,1541.41,1541.41,1541.41,1541.41,1541.41,1541.41,1541.41,1541.41,1541.41,1541.41,1541.41,1541.41,1541.41,1541.41,1541.41,1541.41,1541.41,1541.41,1541.41,1541.41,1541.41,1541.41,1541.41,1541.41,1541.41,1541.41,1541.41,1541.41,1541.41,1541.41,1541.41,1541.41,1541.41,1541.41,1541.41,1541.41,1541.41,1541.41,1541.41,1541.41,1541.41,1541.41,1541.41,1541.41,1541.41,1541.41,1541.41,1541.41,1541.41,1541.41,1541.41,1541.41,1541.41,1541.41,1541.41,1541.41,1541.41,1541.41,1541.41,1541.41,1541.41,1541.41,1541.41,1541.41,1541.41,1541.41,1541.41,1541.41,1541.41,1541.41,1541.41,1541.41,1541.41,1541.41,1541.41,1541.41,1541.41,1541.41,1541.41,1541.41,1541.41,1541.41,1541.41,1541.41,1541.41,1541.41,1541.41,1541.41,1541.41,1541.41,1541.41,1541.41,1541.41,1541.41,1541.41,1541.41,1541.41,1541.41,1541.41,1541.41,1541.41,1541.41,1541.41,1541.41,1541.41,1541.41,1541.41,1541.41,1541.41,1541.41,1541.41,1541.41,1541.41,1541.41,1541.41,1541.41,1541.41,1541.41,1541.41,1541.41,1541.41,1541.41,1541.41,1541.41,1541.41,1541.41,1541.41,1541.41,1541.41,1541.41,1541.41,1541.41,1541.41,1541.41,1541.41,1541.41,1541.41,1541.41,1541.41,1541.41,1541.41,1541.41,1541.41,1541.41,1541.41,1541.41,1541.41,1541.41,1541.41,1541.41,1541.41,1541.41,1541.41,1541.41,1541.41,1541.41,1541.41,1541.41,1541.41,1541.41,1541.41,1541.41,1541.41,1541.41,1541.41,1541.41,1541.41,1541.41,1541.41,1541.41,1541.41,1541.41,1541.41,1541.41,1541.41,1541.41,1541.41,1541.41,1541.41,1541.41,1541.41,1541.41,1541.41,1541.41,1541.41,1541.41,1541.41,1541.41,1541.41,1541.41,1541.41,1541.41,1541.41,1541.41,1541.41,1541.41,1541.41,1541.41,1541.41,1541.41,1541.41,1541.41,1541.41,1541.41,1541.41,1541.41,1541.41,1541.41,1541.41,1541.41,1541.41,1541.41,1541.41,1541.41,1541.41,1541.41,1541.41,1541.41,1541.41,1541.41,1541.41,1541.41,1541.41,1541.41,1541.41,1541.41,1541.41,1541.41,1541.41,1541.41,1541.41,1541.41,1541.41,1541.41,1541.41,1541.41,1541.41,1541.41,1541.41,1541.41,1541.41,1541.41,1541.41,1541.41,1541.41,1541.41,1541.41,1541.41,1541.41,1541.41,1541.41,1541.41,1541.41,1541.41,1541.41,1541.41,1541.41,1541.41,1541.41,1541.41,1541.41,1541.41,1541.41,1541.41,1541.41,1541.41,1541.41,1541.41,1541.41,1541.41,1541.41,1541.41,1541.41,1541.41,1541.41,1541.41,1541.41,1541.41,1541.41,1541.41,1541.41,1541.41,1541.41,1541.41,1541.41,1541.41,1541.41,1541.41,1541.41,1541.41,1541.41,1541.41,1541.41,1541.41,1541.41,1541.41,1541.41,1541.41,1541.41,1541.41,1541.41,1541.41,1541.41,1541.41,1541.41,1541.41,1541.41,1541.41,1541.41,1541.41,1541.41,1541.41,1541.41,1541.41,1541.41,1541.41,1541.41,1541.41,1541.41,1541.41,1541.41,1541.41,1541.41,1541.41,1541.41,1541.41,1541.41,1541.41,1541.41,1541.41,1541.41,1541.41,1541.41,1541.41,1541.41,1541.41,1541.41,1541.41,1541.41,1541.41,1541.41,1541.41,1541.41,1541.41,1541.41,1541.41,1541.41,1541.41,1541.41,1541.41,1541.41,1541.41,1541.41,1541.41,1541.41,1541.41,1541.41,1541.41,1541.41,1541.41,1541.41,1541.41,1541.41,1541.41,1541.41,1541.41,1541.41,1541.41,1541.41,1541.41,1541.41,1541.41,1541.41,1541.41,1541.41,1541.41,1541.41,1541.41,1541.41,1541.41,1541.41,1541.41,1541.41,1541.41,1541.41,1541.41,1541.41,1541.41,1541.41,1541.41,1541.41,1541.41,1541.41,1541.41,1541.41,1541.41,1541.41,1541.41,1541.41,1541.41,1541.41,1541.41,1541.41,1541.41,1541.41,1541.41,1541.41,1541.41,1541.41,1541.41,1541.41,1541.41,1541.41,1541.41,1541.41,1541.41,1541.41,1541.41,1541.41,1541.41,1541.41,1541.41,1541.41,1541.41,1541.41,1541.41,1541.41,1541.41,1541.41,1541.41,1541.41,1541.41,1541.41,1541.41,1541.41,1541.41,1541.41,1541.41,1541.41,1541.41,1541.41,1541.41,1541.41,1541.41,1541.41,1541.41,1541.41,1541.41,1541.41,1541.41,1541.41,1541.41,1541.41,1541.41,1541.41,1541.41,1541.41,1541.41,1541.41,1541.41,1541.41,1541.41,1541.41,1541.41,1541.41,1541.41,1541.41,1541.41,1541.41,1541.41,1541.41,1541.41,1541.41,1541.41,1541.41,1541.41,1541.41,1541.41,1541.41,1541.41,1541.41,1541.41,1541.41,1541.41,1541.41,1541.41,1541.41,1541.41,1541.41,1541.41,1541.41,1541.41,1541.41,1541.41,1541.41,1541.41,1541.41,1541.41,1541.41,1541.41,1541.41,1541.41,1541.41,1541.41,1541.41,1541.41,1541.41,1541.41,1541.41,1541.41,1541.41,1541.41,1541.41,1541.41,1541.41,1541.41,1541.41,1541.41,1541.41,1541.41,1541.41,1541.41,1541.41,1541.41,1541.41,1541.41,1541.41,1541.41,1541.41,1541.41,1541.41,1541.41,1541.41,1541.41,1541.41,1541.41,1541.41,1541.41,1541.41,1541.41,1541.41,1541.41,1541.41,1541.41,1541.41,1541.41,1541.41,1541.41,1541.41,1541.41,1541.41,1541.41,1541.41,1541.41,1541.41,1541.41,1541.41,1541.41,1541.41,1541.41,1541.41,1541.41,1541.41,1541.41,1541.41,1541.41,1541.41,1541.41,1541.41,1541.41,1541.41,1541.41,1541.41,1541.41,1541.41,1541.41,1541.41,1541.41,1541.41,1541.41,1541.41,1541.41,1541.41,1541.41,1541.41,1541.41,1541.41,1541.41,1541.41,1541.41,1541.41,1541.41,1541.41,1541.41,1541.41,1541.41,1541.41,1541.41,1541.41,1541.41,1541.41,1541.41,1541.41,1541.41,1541.41,1541.41,1541.41,1541.41,1541.41,1541.41,1541.41,1541.41,1541.41,1541.41,1541.41,1541.41,1541.41,1541.41,1541.41,1541.41,1541.41,1541.41,1541.41,1541.41,1541.41,1541.41,1541.41,1541.41,1541.41,1541.41,1541.41,1541.41,1541.41,1541.41,1541.41,1541.41,1541.41,1541.41,1541.41,1541.41,1541.41,1541.41,1541.41,1541.41,1541.41,1541.41,1541.41,1541.41,1541.41,1541.41,1541.41,1541.41,1541.41,1541.41,1541.41,1541.41,1541.41,1541.41,1541.41,1541.41,1541.41,1541.41,1541.41,1541.41,1541.41,1541.41,1541.41,1541.41,1541.41,1541.41,1541.41,1541.41,1541.41,1541.41,1541.41,1541.41,1541.41,1541.41,1541.41,1541.41,1541.41,1541.41,1541.41,1541.41,1541.41,1541.41,1541.41,1541.41,1541.41,1541.41,1541.41,1541.41,1541.41,1541.41,1541.41,1541.41,1541.41,1541.41,1541.41,1541.41,1541.41,1541.41,1541.41,1541.41,1541.41,1541.41,1541.41,1541.41,1541.41,1541.41,1541.41,1541.41,1541.41,1541.41,1541.41,1541.41,1541.41,1541.41,1541.41,1541.41,1541.41,1541.41,1541.41,1541.41,1541.41,1541.41,1541.41,1541.41,1541.41,1541.41,1541.41,1541.41,1541.41,1541.41,1541.41,1541.41,1541.41,1541.41,1541.41,1541.41,1541.41,1541.41,1541.41,1541.41,1541.41,1541.41,1541.41,1541.41,1541.41,1541.41,1541.41,1541.41,1541.41,1541.41,1541.41,1541.41,1541.41,1541.41,1541.41,1541.41,1541.41,1541.41,1541.41,1541.41,1541.41,1541.41,1541.41,1541.41,1541.41,1541.41,1541.41,1541.41,1541.41,1541.41,1541.41,1541.41,1541.41,1541.41,1541.41,1541.41,1541.41,1541.41,1541.41,1541.41,1541.41,1541.41,1541.41,1541.41,1541.41,1541.41,1541.41,1541.41,1541.41,1541.41,1541.41,1541.41,1541.41,1541.41,1541.41,1541.41,1541.41,1541.41,1541.41,1541.41,1541.41,1541.41,1541.41,1541.41,1541.41,1541.41,1541.41,1541.41,1541.41,1541.41,1541.41,1541.41,1541.41,1541.41,1541.41,1541.41,1541.41,1541.41,1541.41,1541.41,1541.41,1541.41,1541.41,1541.41,1541.41,1541.41,1541.41,1541.41,1541.41,1541.41,1541.41,1541.41,1541.41,1541.41,1541.41,1541.41,1541.41,1541.41,1541.41,1541.41,1541.41,1541.41,1541.41,1541.41,1541.41,1541.41,1541.41,1541.41,1541.41,1541.41,1541.41,1541.41,1541.41,1541.41,1541.41,1541.41,1541.41,1541.41,1541.41,1541.41,1541.41,1541.41,1541.41,1541.41,1541.41,1541.41,1541.41,1541.41,1541.41,1541.41,1541.41,1541.41,1541.41,1541.41,1541.41,1541.41,1541.41,1541.41,1541.41,1541.41,1541.41,1541.41,1541.41,1541.41,1541.41,1541.41,1541.41,1541.41,1541.41,1541.41,1541.41,1541.41,1541.41,1541.41,1541.41,1541.41,1541.41,1541.41,1541.41,1541.41,1541.41,1541.41,1541.41,1541.41,1541.41,1541.41,1541.41,1541.41,1541.41,1541.41,1541.41,1541.41,1541.41,1541.41,1541.41,1541.41,1541.41,1541.41,1541.41,1541.41,1541.41,1541.41,1541.41,1541.41,1541.41,1541.41,1541.41,1541.41,1541.41,1541.41,1541.41,1541.41,1541.41,1541.41,1541.41,1541.41,1541.41,1541.41,1541.41,1541.41,1541.41,1541.41,1541.41,1541.41,1541.41,1541.41,1541.41,1541.41,1541.41,1541.41,1541.41,1541.41,1541.41,1541.41,1541.41,1541.41,1541.41,1541.41,1541.41,1541.41,1541.41,1541.41,1541.41,1541.41,1541.41,1541.41,1541.41,1541.41,1541.41,1541.41,1541.41,1541.41,1541.41,1541.41,1541.41,1541.41,1541.41,1541.41,1541.41,1541.41,1541.41,1541.41,1541.41,1541.41,1541.41,1541.41,1541.41,1541.41,1541.41,1541.41,1541.41,1541.41,1541.41,1541.41,1541.41,1541.41,1541.41,1541.41,1541.41,1541.41,1541.41,1541.41,1541.41,1541.41,1541.41,1541.41,1541.41,1541.41,1541.41,1541.41,1541.41,1541.41,1541.41,1541.41,1541.41,1541.41,1541.41,1541.41,1541.41,1541.41,1541.41,1541.41,1541.41,1541.41,1541.41,1541.41,1541.41,1541.41,1541.41,1541.41,1541.41,1541.41,1541.41,1541.41,1541.41,1541.41,1541.41,1541.41,1541.41,1541.41,1541.41,1541.41,1541.41,1541.41,1541.41,1541.41,1541.41,1541.41,1541.41,1541.41,1541.41,1541.41,1541.41,1541.41,1541.41,1541.41,1541.41,1541.41,1541.41,1541.41,1541.41,1541.41,1541.41,1541.41,1541.41,1541.41,1541.41,1541.41,1541.41,1541.41,1541.41,1541.41,1541.41,1541.41,1541.41,1541.41,1541.41,1541.41,1541.41,1541.41,1541.41,1541.41,1541.41,1541.41,1541.41,1541.41,1541.41,1541.41,1541.41,1541.41,1541.41,1541.41,1541.41,1541.41,1541.41,1541.41,1541.41,1541.41,1541.41,1541.41,1541.41,1541.41,1541.41,1541.41,1541.41,1541.41,1541.41,1541.41,1541.41,1541.41,1541.41,1541.41,1541.41,1541.41,1541.41,1541.41,1541.41,1541.41,1541.41,1541.41,1541.41,1541.41,1541.41,1541.41,1541.41,1541.41,1541.41,1541.41,1541.41,1541.41,1541.41,1541.41,1541.41,1541.41,1541.41,1541.41,1541.41,1541.41,1541.41,1541.41,1541.41,1541.41,1541.41,1541.41,1541.41,1541.41,1541.41,1541.41,1541.41,1541.41,1541.41,1541.41,1541.41,1541.41,1541.41,1541.41,1541.41,1541.41,1541.41,1541.41,1541.41,1541.41,1541.41,1541.41,1541.41,1541.41,1541.41,1541.41,1541.41,1541.41,1541.41,1541.41,1541.41,1541.41,1541.41,1541.41,1541.41,1541.41,1541.41,1541.41,1541.41,1541.41,1541.41,1541.41,1541.41,1541.41,1541.41,1541.41,1541.41,1541.41,1541.41,1541.41,1541.41,1541.41,1541.41,1541.41,1541.41,1541.41,1541.41,1541.41,1541.41,1541.41,1541.41,1541.41,1541.41,1541.41,1541.41,1541.41,1541.41,1541.41,1541.41,1541.41,1541.41,1541.41,1541.41,1541.41,1541.41,1541.41,1541.41,1541.41,1541.41,1541.41,1541.41,1541.41,1541.41,1541.41,1541.41,1541.41,1541.41,1541.41,1541.41,1541.41,1541.41,1541.41,1541.41,1541.41,1541.41,1541.41,1541.41,1541.41,1541.41,1541.41,1541.41,1541.41,1541.41,1541.41,1541.41,1541.41,1541.41,1541.41,1541.41,1541.41,1541.41,1541.41,1541.41,1541.41,1541.41,1541.41,1541.41,1541.41,1541.41,1541.41,1541.41,1541.41,1541.41,1541.41,1541.41,1541.41,1541.41,1541.41,1541.41,1541.41,1541.41,1541.41,1541.41,1541.41,1541.41,1541.41,1541.41,1541.41,1541.41,1541.41,1541.41,1541.41,1541.41,1541.41,1541.41,1541.41,1541.41,1541.41,1541.41,1541.41,1541.41,1541.41,1541.41,1541.41,1541.41,1541.41,1541.41,1541.41,1541.41,1541.41,1541.41,1541.41,1541.41,1541.41,1541.41,1541.41,1541.41,1541.41,1541.41,1541.41,1541.41,1541.41,1541.41,1541.41,1541.41,1541.41,1541.41,1541.41,1541.41,1541.41,1541.41,1541.41,1541.41,1541.41,1541.41,1541.41,1541.41,1541.41,1541.41,1541.41,1541.41,1541.41,1541.41,1541.41,1541.41,1541.41,1541.41,1541.41,1541.41,1541.41,1541.41,1541.41,1541.41,1541.41,1541.41,1541.41,1541.41,1541.41,1541.41,1541.41,1541.41,1541.41,1541.41,1541.41,1541.41,1541.41,1541.41,1541.41,1541.41,1541.41,1541.41,1541.41,1541.41,1541.41,1541.41,1541.41,1541.41,1541.41,1541.41,1541.41,1541.41,1541.41,1541.41,1541.41,1541.41,1541.41,1541.41,1541.41,1541.41,1541.41,1541.41,1541.41,1541.41,1541.41,1541.41,1541.41,1541.41,1541.41,1541.41,1541.41,1541.41,1541.41,1541.41,1541.41,1541.41,1541.41,1541.41,1541.41,1541.41,1541.41,1541.41,1541.41,1541.41,1541.41,1541.41,1541.41,1541.41,1541.41,1541.41,1541.41,1541.41,1541.41,1541.41,1541.41,1541.41,1541.41,1541.41,1541.41,1541.41,1541.41,1541.41,1541.41,1541.41,1541.41,1541.41,1541.41,1541.41,1541.41,1541.41,1541.41,1541.41,1541.41,1541.41,1541.41,1541.41,1541.41,1541.41,1541.41,1541.41,1541.41,1541.41,1541.41,1541.41,1541.41,1541.41,1541.41,1541.41,1541.41,1541.41,1541.41,1541.41,1541.41,1541.41,1541.41,1541.41,1541.41,1541.41,1541.41,1541.41,1541.41,1541.41,1541.41,1541.41,1541.41,1541.41,1541.41,1541.41,1541.41,1541.41,1541.41,1541.41,1541.41,1541.41,1541.41,1541.41,1541.41,1541.41,1541.41,1541.41,1541.41,1541.41,1541.41,1541.41,1541.41,1541.41,1541.41,1541.41,1541.41,1541.41,1541.41,1541.41,1541.41,1541.41,1541.41,1541.41,1541.41,1541.41,1541.41,1541.41,1541.41,1541.41,1541.41,1541.41,1541.41,1541.41,1541.41,1541.41,1541.41,1541.41,1541.41,1541.41,1541.41,1541.41,1541.41,1541.41,1541.41,1541.41,1541.41,1541.41,1541.41,1541.41,1541.41,1541.41,1541.41,1541.41,1541.41,1541.41,1541.41,1541.41,1541.41,1541.41,1541.41,1541.41,1541.41,1541.41,1541.41,1541.41,1541.41,1541.41,1541.41,1541.41,1541.41,1541.41,1541.41,1541.41,1541.41,1541.41,1541.41,1541.41,1541.41,1541.41,1541.41,1541.41,1541.41,1541.41,1541.41,1541.41,1541.41,1541.41,1541.41,1541.41,1541.41,1541.41,1541.41,1541.41,1541.41,